certificates/rado_a5_c117_N23.cnf
c Rad2 upper bound instance: x1 + 5*x2 - x3 = 117, interval [1,23]
p cnf 23 110
1 3 23 0
-1 -3 -23 0
2 4 23 0
-2 -4 -23 0
3 5 23 0
-3 -5 -23 0
4 6 23 0
-4 -6 -23 0
5 7 23 0
-5 -7 -23 0
1 8 22 0
-1 -8 -22 0
6 8 23 0
-6 -8 -23 0
2 9 22 0
-2 -9 -22 0
7 9 23 0
-7 -9 -23 0
3 10 22 0
-3 -10 -22 0
8 10 23 0
-8 -10 -23 0
4 11 22 0
-4 -11 -22 0
9 11 23 0
-9 -11 -23 0
5 12 22 0
-5 -12 -22 0
10 12 23 0
-10 -12 -23 0
1 13 21 0
-1 -13 -21 0
6 13 22 0
-6 -13 -22 0
11 13 23 0
-11 -13 -23 0
2 14 21 0
-2 -14 -21 0
7 14 22 0
-7 -14 -22 0
12 14 23 0
-12 -14 -23 0
3 15 21 0
-3 -15 -21 0
8 15 22 0
-8 -15 -22 0
13 15 23 0
-13 -15 -23 0
4 16 21 0
-4 -16 -21 0
9 16 22 0
-9 -16 -22 0
14 16 23 0
-14 -16 -23 0
5 17 21 0
-5 -17 -21 0
10 17 22 0
-10 -17 -22 0
15 17 23 0
-15 -17 -23 0
1 18 20 0
-1 -18 -20 0
6 18 21 0
-6 -18 -21 0
11 18 22 0
-11 -18 -22 0
16 18 23 0
-16 -18 -23 0
2 19 20 0
-2 -19 -20 0
7 19 21 0
-7 -19 -21 0
12 19 22 0
-12 -19 -22 0
17 19 23 0
-17 -19 -23 0
3 20 0
-3 -20 0
8 20 21 0
-8 -20 -21 0
13 20 22 0
-13 -20 -22 0
18 20 23 0
-18 -20 -23 0
4 20 21 0
-4 -20 -21 0
9 21 0
-9 -21 0
14 21 22 0
-14 -21 -22 0
19 21 23 0
-19 -21 -23 0
5 20 22 0
-5 -20 -22 0
10 21 22 0
-10 -21 -22 0
15 22 0
-15 -22 0
20 22 23 0
-20 -22 -23 0
1 19 23 0
-1 -19 -23 0
6 20 23 0
-6 -20 -23 0
11 21 23 0
-11 -21 -23 0
16 22 23 0
-16 -22 -23 0
21 23 0
-21 -23 0
