certificates/rado_a5_c117_N23.drat
-23 0
21 0
-9 0
7 0
11 0
-19 0
17 0
1 0
-5 0
-13 0
3 0
15 0
-20 0
0
